Version identifier: 22.1.0.0 | 2022-03-09 | 1a383f8ce
CPXPARAM_Threads                                 1
CPXPARAM_MIP_Strategy_VariableSelect             3
CPXPARAM_TimeLimit                               599.99998753600005
1 of 1 MIP starts provided solutions.
MIP start 'm1' defined initial solution with objective 1.0000.
Tried aggregator 1 time.
MIP Presolve eliminated 13 rows and 0 columns.
MIP Presolve modified 1 coefficients.
Reduced MIP has 2105 rows, 5700 columns, and 75624 nonzeros.
Reduced MIP has 5700 binaries, 0 generals, 0 SOSs, and 0 indicators.
Presolve time = 0.05 sec. (36.25 ticks)
Probing time = 0.01 sec. (4.16 ticks)
Tried aggregator 1 time.
Detecting symmetries...
Reduced MIP has 2105 rows, 5700 columns, and 75624 nonzeros.
Reduced MIP has 5700 binaries, 0 generals, 0 SOSs, and 0 indicators.
Presolve time = 0.07 sec. (41.92 ticks)
Probing time = 0.01 sec. (4.16 ticks)
Clique table members: 1193.
MIP emphasis: balance optimality and feasibility.
MIP search method: dynamic search.
Parallel mode: none, using 1 thread.
Root relaxation solution time = 1.30 sec. (1201.85 ticks)

        Nodes                                         Cuts/
   Node  Left     Objective  IInf  Best Integer    Best Bound    ItCnt     Gap

*     0+    0                            1.0000     5700.0000              --- 
      0     0      300.0000  1301        1.0000      300.0000     4451     --- 
      0     0      300.0000   987        1.0000      Cuts: 10     4848     --- 
      0     0      300.0000  1268        1.0000     Cuts: 260    11241     --- 
      0     0      300.0000  1237        1.0000      Cuts: 12    17956     --- 
*     0+    0                           78.0000      300.0000           284.62%
      0     0      300.0000  1222       78.0000      Cuts: 40    24958  284.62%
      0     0      300.0000  1168       78.0000      Cuts: 26    31894  284.62%
Detecting symmetries...
      0     0      300.0000  1237       78.0000      Cuts: 27    39313  284.62%
*     0+    0                          100.0000      300.0000           200.00%
*     0+    0                          165.0000      300.0000            81.82%
*     0+    0                          183.0000      300.0000            63.93%
*     0+    0                          235.0000      300.0000            27.66%
*     0+    0                          250.0000      300.0000            20.00%
*     0+    0                          253.0000      300.0000            18.58%
      0     0        cutoff            253.0000      300.0000    39313   18.58%
Heuristic still looking.
Detecting symmetries...
      0     2      300.0000   900      253.0000      300.0000    39313   18.58%
Elapsed time = 97.35 sec. (96115.52 ticks, tree = 0.01 MB, solutions = 8)
      1     3      300.0000  1122      253.0000      300.0000    49889   18.58%
      2     4      300.0000  1163      253.0000      300.0000    55884   18.58%
      3     5      300.0000  1166      253.0000      300.0000    61981   18.58%
      4     6      300.0000  1180      253.0000      300.0000    66584   18.58%
      5     7      300.0000  1167      253.0000      300.0000    66601   18.58%
      6     6        cutoff            253.0000      300.0000    87629   18.58%
      7     7      300.0000  1255      253.0000      300.0000    88270   18.58%
      8     8      300.0000  1183      253.0000      300.0000    88411   18.58%
      9     9      300.0000  1183      253.0000      300.0000    88467   18.58%
     10    10      300.0000  1178      253.0000      300.0000    88844   18.58%
Elapsed time = 115.94 sec. (114419.13 ticks, tree = 0.12 MB, solutions = 8)
     12    12      300.0000  1175      253.0000      300.0000    90132   18.58%
     14    14      300.0000  1188      253.0000      300.0000    91436   18.58%
     16    16      300.0000  1088      253.0000      300.0000   108652   18.58%
     18    18      300.0000   996      253.0000      300.0000   112198   18.58%
     19    19      300.0000  1005      253.0000      300.0000   112473   18.58%
     20    20      300.0000  1012      253.0000      300.0000   118205   18.58%
     21    21      300.0000   979      253.0000      300.0000   123951   18.58%
     23    23      300.0000   926      253.0000      300.0000   126121   18.58%
     25    25      300.0000   928      253.0000      300.0000   128711   18.58%
     27    27      300.0000   847      253.0000      300.0000   134098   18.58%
Elapsed time = 136.56 sec. (136102.12 ticks, tree = 0.44 MB, solutions = 8)
     28    28      287.0000   857      253.0000      300.0000   135420   18.58%
     30    30      300.0000   737      253.0000      300.0000   143481   18.58%
     31    31      300.0000   857      253.0000      300.0000   153186   18.58%
     33    31      300.0000   857      253.0000      300.0000   156037   18.58%
     35    33      299.9685   934      253.0000      300.0000   164675   18.58%
     36    34      300.0000   865      253.0000      300.0000   166280   18.58%
     38    36      300.0000   859      253.0000      300.0000   171370   18.58%
     39    37      299.9306   962      253.0000      300.0000   173887   18.58%
     40    38      300.0000   855      253.0000      300.0000   174155   18.58%
     41    39      299.9306   935      253.0000      300.0000   178325   18.58%
Elapsed time = 164.33 sec. (163694.30 ticks, tree = 0.62 MB, solutions = 8)
     43    41      299.9841   903      253.0000      300.0000   185074   18.58%
     44    42      300.0000   843      253.0000      300.0000   186080   18.58%
     45    43      299.9306   943      253.0000      300.0000   188717   18.58%
     48    46      300.0000   823      253.0000      300.0000   189934   18.58%
     50    48      299.9685   908      253.0000      300.0000   196909   18.58%
     51    49      299.9841   913      253.0000      300.0000   202979   18.58%
     53    51      299.9495   899      253.0000      300.0000   207848   18.58%
     55    53      299.9961   931      253.0000      300.0000   211812   18.58%
     57    55      299.9935   890      253.0000      300.0000   219592   18.58%
     59    57      300.0000   877      253.0000      300.0000   220975   18.58%
Elapsed time = 178.67 sec. (178591.71 ticks, tree = 0.96 MB, solutions = 8)
     60    58      298.9846   881      253.0000      300.0000   230363   18.58%
     62    60      300.0000   832      253.0000      300.0000   231824   18.58%
     63    61      299.9841   907      253.0000      300.0000   238208   18.58%
     65    63      299.0000   831      253.0000      300.0000   240170   18.58%
     67    65      299.9932   861      253.0000      300.0000   246127   18.58%
     69    66      299.9917   907      253.0000      300.0000   250812   18.58%
     70    67      300.0000   714      253.0000      300.0000   258563   18.58%
     71    68      299.8928   839      253.0000      300.0000   263401   18.58%
     73    70      299.9306   873      253.0000      300.0000   269134   18.58%
     75    72      299.9479   823      253.0000      300.0000   280970   18.58%
Elapsed time = 195.87 sec. (195902.31 ticks, tree = 1.19 MB, solutions = 8)
     76    73      300.0000   711      253.0000      300.0000   284269   18.58%
     77    74      299.9681   835      253.0000      300.0000   287327   18.58%
     78    75      300.0000   814      253.0000      300.0000   295366   18.58%
     81    77      300.0000   800      253.0000      300.0000   295923   18.58%
     83    78      300.0000   797      253.0000      300.0000   301026   18.58%
     84    79      299.9841   911      253.0000      300.0000   306382   18.58%
     88    83      299.9917   815      253.0000      300.0000   313694   18.58%
     90    85      299.9908   840      253.0000      300.0000   319892   18.58%
     92    87      299.9841   882      253.0000      300.0000   324671   18.58%
     95    90      300.0000   752      253.0000      300.0000   325897   18.58%
Elapsed time = 210.27 sec. (210008.06 ticks, tree = 1.54 MB, solutions = 8)
     96    91      299.9918   858      253.0000      300.0000   334132   18.58%
     98    93      299.9841   884      253.0000      300.0000   340429   18.58%
    100    95      299.9885   845      253.0000      300.0000   349679   18.58%
    104    98      300.0000   733      253.0000      300.0000   350102   18.58%
    105    99      299.9934   832      253.0000      300.0000   358087   18.58%
    107   101      299.9495   889      253.0000      300.0000   365096   18.58%
    109   103      299.9914   837      253.0000      300.0000   370801   18.58%
    110   104      300.0000   743      253.0000      300.0000   371400   18.58%
    112   106      299.9947   841      253.0000      300.0000   379414   18.58%
    114   108      299.9932   847      253.0000      300.0000   390399   18.58%
Elapsed time = 230.80 sec. (228719.86 ticks, tree = 1.86 MB, solutions = 8)
    116   110      300.0000   870      253.0000      300.0000   392479   18.58%
    117   110      299.9799   863      253.0000      300.0000   396779   18.58%
    118   111      299.9828   847      253.0000      300.0000   402233   18.58%
    120   113      299.0000   844      253.0000      300.0000   405402   18.58%
    123   116      299.9828   854      253.0000      300.0000   407526   18.58%
    126   119      299.0000   876      253.0000      300.0000   410338   18.58%
    128   120      299.9623   913      253.0000      300.0000   416242   18.58%
    131   123      299.0000   822      253.0000      300.0000   418852   18.58%
    135   127      299.0000   803      253.0000      300.0000   421558   18.58%
    138   129      299.0000   740      253.0000      300.0000   425385   18.58%
Elapsed time = 243.30 sec. (241336.16 ticks, tree = 2.28 MB, solutions = 8)
    141   132      299.0000   739      253.0000      300.0000   430205   18.58%
    145   136      299.0000   709      253.0000      300.0000   433584   18.58%
    146   137      298.9630   731      253.0000      300.0000   442314   18.58%
    148   139      299.0000   691      253.0000      300.0000   447794   18.58%
    151   142      298.9306   789      253.0000      300.0000   459201   18.58%
    152   143      299.0000   764      253.0000      300.0000   466888   18.58%
    153   143      298.6105   818      253.0000      300.0000   473436   18.58%
    157   145      299.0000   743      253.0000      300.0000   476823   18.58%
    159   147      299.0000   735      253.0000      300.0000   483309   18.58%
    160   148      298.9121   768      253.0000      300.0000   488723   18.58%
Elapsed time = 267.11 sec. (263607.68 ticks, tree = 2.62 MB, solutions = 8)
    163   151      298.8706   772      253.0000      300.0000   496950   18.58%
    164   152      298.8295   732      253.0000      300.0000   506392   18.58%
    167   155      298.0000   745      253.0000      300.0000   509947   18.58%
    169   157      298.8295   730      253.0000      300.0000   514190   18.58%
    172   160      298.8295   705      253.0000      300.0000   517375   18.58%
    175   163      298.5922   683      253.0000      300.0000   522445   18.58%
    178   166      298.5922   670      253.0000      300.0000   527125   18.58%
    180   167      298.5922   665      253.0000      300.0000   531915   18.58%
    182   168      298.5409   678      253.0000      300.0000   537232   18.58%
    187   171      298.3659   733      253.0000      300.0000   554622   18.58%
Elapsed time = 283.00 sec. (278654.93 ticks, tree = 3.07 MB, solutions = 8)
    193   176      298.4187   687      253.0000      300.0000   572751   18.58%
    197   177      297.9197   728      253.0000      300.0000   586273   18.58%
    205   183      297.5823   710      253.0000      300.0000   600950   18.58%
    216   193      296.8606   660      253.0000      300.0000   613775   18.58%
    225   202      296.8189   643      253.0000      300.0000   629302   18.58%
    233   209      296.2338   600      253.0000      300.0000   645350   18.58%
    240   214      295.8103   617      253.0000      300.0000   669960   18.58%
    249   222      295.6687   555      253.0000      300.0000   686453   18.58%
    259   232      294.0000   479      253.0000      300.0000   700409   18.58%
    271   241      293.9081   614      253.0000      300.0000   718129   18.58%
Elapsed time = 333.86 sec. (325815.88 ticks, tree = 4.38 MB, solutions = 8)
    282   249      293.5000   397      253.0000      300.0000   734375   18.58%
    293   258      293.2500   356      253.0000      300.0000   753028   18.58%
    302   265      293.0897   396      253.0000      300.0000   766280   18.58%
    315   274      292.1630   554      253.0000      300.0000   785657   18.58%
    320   279      292.4348   516      253.0000      300.0000   797085   18.58%
    341   290      288.3846   344      253.0000      300.0000   812040   18.58%
    364   301      288.3846   367      253.0000      300.0000   824286   18.58%
    375   301      298.9701   882      253.0000      300.0000   847387   18.58%
    387   310      298.0000   768      253.0000      300.0000   857061   18.58%
    396   319      298.0000   689      253.0000      300.0000   869899   18.58%
Elapsed time = 384.09 sec. (372307.90 ticks, tree = 5.85 MB, solutions = 8)
    400   323      298.0000   649      253.0000      300.0000   876997   18.58%
    408   330      298.0000   604      253.0000      300.0000   895850   18.58%
    413   333      297.8801   602      253.0000      300.0000   915704   18.58%
    423   343      297.5847   745      253.0000      300.0000   930240   18.58%
    434   354      297.8678   612      253.0000      300.0000   942682   18.58%
    442   362      296.5214   586      253.0000      300.0000   963128   18.58%
    451   371      296.9679   616      253.0000      300.0000   982794   18.58%
    463   383      297.0000   467      253.0000      300.0000   998616   18.58%
    472   390      296.5382   680      253.0000      300.0000  1026633   18.58%
    482   399      297.0000   478      253.0000      300.0000  1046203   18.58%
Elapsed time = 430.63 sec. (414753.65 ticks, tree = 7.41 MB, solutions = 8)
    492   408      296.8860   658      253.0000      300.0000  1068927   18.58%
    503   419      295.8000   462      253.0000      300.0000  1094915   18.58%
*   509+  423                          261.0000      300.0000            14.94%
    510   426      299.9153   927      261.0000      300.0000  1141949   14.94%
*   511+  425                          266.0000      300.0000            12.78%
    511   427      299.9030   857      266.0000      300.0000  1170424   12.78%
    512   427      299.8718   847      266.0000      300.0000  1192666   12.78%
*   513+  425                          271.0000      300.0000            10.70%
*   513+  425                          273.0000      300.0000             9.89%
    513   427      299.0000  1039      273.0000      300.0000  1211834    9.89%
    514   428      299.9017   958      273.0000      300.0000  1239720    9.89%
    520   434      299.8686   818      273.0000      300.0000  1244668    9.89%
    525   439      299.8438  1010      273.0000      300.0000  1251953    9.89%
    534   446      299.8373   980      273.0000      300.0000  1254869    9.89%
Elapsed time = 556.52 sec. (528193.95 ticks, tree = 8.28 MB, solutions = 12)
    545   457      299.8373   996      273.0000      300.0000  1258050    9.89%
    556   468      299.8373  1026      273.0000      300.0000  1260879    9.89%
    568   480      299.8373  1034      273.0000      300.0000  1262022    9.89%
    578   490      299.8373   966      273.0000      300.0000  1265721    9.89%
    590   502      299.8373  1000      273.0000      300.0000  1268014    9.89%
Starting limited solution polishing.
*   600+  509                          274.0000      300.0000             9.49%

Clique cuts applied:  87
Zero-half cuts applied:  21
Lift and project cuts applied:  1

Root node processing (before b&c):
  Real time             =   97.29 sec. (96057.95 ticks)
Sequential b&c:
  Real time             =  502.71 sec. (472009.62 ticks)
                          ------------
Total (root+branch&cut) =  600.00 sec. (568067.57 ticks)
Primal:	274
Dual:	300
Status:	Feasible
Time:	599.96
Sequence:
	13
	6
	15
	2
	15
	5
	10
	4
	10
	5
	15
	2
	0
	4
	15
	0
	15
	8
	10
	4
	10
	5
	8
	10
	4
	10
	8
	15
	0
	15
	7
	0
	10
	7
	11
	0
	15
	8
	10
	4
	10
	8
	0
	15
	7
	10
	4
	13
	5
	10
	7
	10
	6
	7
	10
	5
	15
	0
	15
	3
	15
	0
	15
	7
	10
	5
	12
	5
	15
	2
	5
	15
	3
	5
	10
	8
	10
	4
	15
	0
	15
	5
	10
	4
	10
	8
	10
	5
	2
	15
	5
	12
	5
	10
	7
	10
	5
	11
	7
	15
	0
	15
	6
	10
	7
	10
	5
	8
	10
	4
	15
	0
	15
	2
	15
	1
	15
	5
	10
	7
	10
	6
	15
	2
	15
	5
	12
	5
	15
	2
	5
	10
	8
	10
	4
	8
	10
	5
	7
	10
	0
	11
	5
	15
	2
	5
	15
	0
	4
	10
	5
	15
	0
	4
	10
	8
	15
	0
	7
	10
	0
	17
	5
	10
	7
	15
	0
	15
	3
	5
	10
	5
	2
	15
	0
	7
	10
	4
	13
	0
	15
	2
	15
	5
	10
	7
	15
	1
	15
	7
	10
	5
	12
	0
	15
	7
	0
	15
	5
	2
	10
	6
	7
	10
	5
	10
	6
	10
	7
	0
	15
	1
	7
	15
	0
	15
	0
	15
	2
	4
	15
	0
	15
	0
	15
	3
	0
	15
	7
	10
	5
	15
	1
	15
	2
	15
	5
	1
	10
	7
	15
	0
	12
	0
	15
	7
	0
	15
	6
	10
	7
	10
	5
	5
	10
	7
	15
	0
	12
	5
	15
	2
	10
	5
	15
	3
	0
	15
	5
	10
	4
	15
	0
	18
